(set-info :Origin "This instance was generated by: BanditFuzz-- an RL fuzzer for SMT solvers" )
(set-info :Author "Joe Scott, Fed Mora, Vijay Ganesh" )
(set-info :Contact "Joe Scott, joseph.scott@uwaterloo.ca")
(set-logic QF_BV)
(declare-const bool_0 Bool)
(declare-const bool_1 Bool)
(declare-const bool_2 Bool)
(declare-const bool_3 Bool)
(declare-const bool_4 Bool)
(declare-const bv_0 (_ BitVec 32))
(declare-const bv_1 (_ BitVec 32))
(declare-const bv_2 (_ BitVec 32))
(declare-const bv_3 (_ BitVec 32))
(declare-const bv_4 (_ BitVec 32))
(assert (bvsle (bvsub (bvudiv #x4cbb662b  #x537a0e5c ) (bvnand #xd90eabe9  #x2b94c47c )) (bvxnor (bvsmod bv_0 #x82eba6de ) (bvudiv #xfeafc705  bv_2))))
(assert (xor (and (bvuge bv_4 bv_3) (bvsge #x07e2c7cb  bv_4)) (bvugt (bvand #xa483b042  #x13c887b5 ) (bvsrem bv_0 bv_3))))
(assert (bvsgt (bvshl (bvashr bv_2 bv_4) (bvsmod #xa7bc803d  #x49f4d239 )) (bvxor (bvsmod #x1733016d  bv_3) (bvurem #xbeb160bd  #x2e72b278 ))))
(assert (bvuge (bvand (bvudiv #xac735682  #x048e3fef ) (bvsub bv_3 #x0d5695c5 )) (bvxor (bvshl #x3cf11e62  bv_4) (bvxnor #xca34c735  bv_0))))
(assert (or (bvsge (bvurem #xbba4f002  #x8e792ec5 ) (bvashr bv_2 bv_4)) (bvslt (bvnand bv_3 #xc29df58c ) (bvurem #x47baf4c1  bv_3))))
(check-sat)
(exit)
